p cnf 289 835
-12 -8 0
-12 -9 0
12 8 9 0
-13 6 0
-13 7 0
13 -6 -7 0
-14 4 0
-14 5 0
14 -4 -5 0
-15 3 0
-15 14 0
15 -3 -14 0
-16 13 0
-16 15 0
16 -13 -15 0
-17 -10 0
-17 -16 0
17 10 16 0
-18 -11 0
-18 17 0
18 11 -17 0
-19 12 0
-19 18 0
19 -12 -18 0
-20 6 0
-20 8 0
20 -6 -8 0
-21 7 0
-21 9 0
21 -7 -9 0
-22 20 0
-22 21 0
22 -20 -21 0
-23 2 0
-23 4 0
23 -2 -4 0
-24 1 0
-24 23 0
24 -1 -23 0
-25 -6 0
-25 -8 0
25 6 8 0
-26 -9 0
-26 25 0
26 9 -25 0
-27 24 0
-27 26 0
27 -24 -26 0
-28 -22 0
-28 -27 0
28 22 27 0
-29 3 0
-29 -28 0
29 -3 28 0
-30 9 0
-30 20 0
30 -9 -20 0
-31 4 0
-31 7 0
31 -4 -7 0
-32 30 0
-32 31 0
32 -30 -31 0
-33 -29 0
-33 -32 0
33 29 32 0
-34 5 0
-34 -33 0
34 -5 33 0
-35 -6 0
-35 7 0
35 6 -7 0
-36 3 0
-36 4 0
36 -3 -4 0
-37 5 0
-37 7 0
37 -5 -7 0
-38 36 0
-38 37 0
38 -36 -37 0
-39 6 0
-39 -38 0
39 -6 38 0
-40 -35 0
-40 -39 0
40 35 39 0
-41 -8 0
-41 -40 0
41 8 40 0
-42 -9 0
-42 41 0
42 9 -41 0
-43 -10 0
-43 -11 0
43 10 11 0
-44 -42 0
-44 43 0
44 42 -43 0
-45 -34 0
-45 44 0
45 34 -44 0
-46 5 0
-46 -8 0
46 -5 8 0
-47 13 0
-47 46 0
47 -13 -46 0
-48 1 0
-48 2 0
48 -1 -2 0
-49 -6 0
-49 -7 0
49 6 7 0
-50 48 0
-50 49 0
50 -48 -49 0
-51 -47 0
-51 -50 0
51 47 50 0
-52 4 0
-52 -51 0
52 -4 51 0
-53 3 0
-53 52 0
53 -3 -52 0
-54 7 0
-54 -8 0
54 -7 8 0
-55 -5 0
-55 -54 0
55 5 54 0
-56 6 0
-56 -7 0
56 -6 7 0
-57 -8 0
-57 -56 0
57 8 56 0
-58 -4 0
-58 -57 0
58 4 57 0
-59 8 0
-59 -13 0
59 -8 13 0
-60 2 0
-60 3 0
60 -2 -3 0
-61 -7 0
-61 -60 0
61 7 60 0
-62 6 0
-62 61 0
62 -6 -61 0
-63 -10 0
-63 -62 0
63 10 62 0
-64 -59 0
-64 63 0
64 59 -63 0
-65 -58 0
-65 64 0
65 58 -64 0
-66 -55 0
-66 65 0
66 55 -65 0
-67 -53 0
-67 66 0
67 53 -66 0
-68 -9 0
-68 -67 0
68 9 67 0
-69 3 0
-69 -4 0
69 -3 4 0
-70 4 0
-70 9 0
70 -4 -9 0
-71 -69 0
-71 -70 0
71 69 70 0
-72 7 0
-72 -71 0
72 -7 71 0
-73 6 0
-73 72 0
73 -6 -72 0
-74 8 0
-74 73 0
74 -8 -73 0
-75 -10 0
-75 74 0
75 10 -74 0
-76 5 0
-76 75 0
76 -5 -75 0
-77 8 0
-77 13 0
77 -8 -13 0
-78 10 0
-78 -77 0
78 -10 77 0
-79 -76 0
-79 -78 0
79 76 78 0
-80 -68 0
-80 79 0
80 68 -79 0
-81 -11 0
-81 -80 0
81 11 80 0
-82 7 0
-82 8 0
82 -7 -8 0
-83 -3 0
-83 82 0
83 3 -82 0
-84 5 0
-84 9 0
84 -5 -9 0
-85 6 0
-85 84 0
85 -6 -84 0
-86 83 0
-86 85 0
86 -83 -85 0
-87 -7 0
-87 -8 0
87 7 8 0
-88 -5 0
-88 -9 0
88 5 9 0
-89 -6 0
-89 88 0
89 6 -88 0
-90 87 0
-90 89 0
90 -87 -89 0
-91 -86 0
-91 -90 0
91 86 90 0
-92 -10 0
-92 -91 0
92 10 91 0
-93 -11 0
-93 92 0
93 11 -92 0
-94 -4 0
-94 93 0
94 4 -93 0
-95 5 0
-95 -7 0
95 -5 7 0
-96 1 0
-96 -4 0
96 -1 4 0
-97 95 0
-97 96 0
97 -95 -96 0
-98 -5 0
-98 6 0
98 5 -6 0
-99 4 0
-99 98 0
99 -4 -98 0
-100 -97 0
-100 -99 0
100 97 99 0
-101 2 0
-101 -100 0
101 -2 100 0
-102 -5 0
-102 -7 0
102 5 7 0
-103 5 0
-103 -48 0
103 -5 48 0
-104 4 0
-104 103 0
104 -4 -103 0
-105 -102 0
-105 -104 0
105 102 104 0
-106 -6 0
-106 -105 0
106 6 105 0
-107 -101 0
-107 -106 0
107 101 106 0
-108 3 0
-108 -107 0
108 -3 107 0
-109 4 0
-109 -7 0
109 -4 7 0
-110 -3 0
-110 109 0
110 3 -109 0
-111 -4 0
-111 6 0
111 4 -6 0
-112 -110 0
-112 -111 0
112 110 111 0
-113 5 0
-113 -112 0
113 -5 112 0
-114 -108 0
-114 -113 0
114 108 113 0
-115 -8 0
-115 -114 0
115 8 114 0
-116 -2 0
-116 56 0
116 2 -56 0
-117 3 0
-117 35 0
117 -3 -35 0
-118 -116 0
-118 -117 0
118 116 117 0
-119 5 0
-119 -118 0
119 -5 118 0
-120 4 0
-120 119 0
120 -4 -119 0
-121 6 0
-121 -14 0
121 -6 14 0
-122 7 0
-122 121 0
122 -7 -121 0
-123 -120 0
-123 -122 0
123 120 122 0
-124 -115 0
-124 123 0
124 115 -123 0
-125 -9 0
-125 -124 0
125 9 124 0
-126 -7 0
-126 8 0
126 7 -8 0
-127 4 0
-127 126 0
127 -4 -126 0
-128 -3 0
-128 54 0
128 3 -54 0
-129 -127 0
-129 -128 0
129 127 128 0
-130 6 0
-130 -129 0
130 -6 129 0
-131 5 0
-131 130 0
131 -5 -130 0
-132 5 0
-132 6 0
132 -5 -6 0
-133 8 0
-133 -132 0
133 -8 132 0
-134 7 0
-134 133 0
134 -7 -133 0
-135 -131 0
-135 -134 0
135 131 134 0
-136 -125 0
-136 135 0
136 125 -135 0
-137 -10 0
-137 -136 0
137 10 136 0
-138 6 0
-138 -8 0
138 -6 8 0
-139 37 0
-139 138 0
139 -37 -138 0
-140 -126 0
-140 -139 0
140 126 139 0
-141 9 0
-141 -140 0
141 -9 140 0
-142 -137 0
-142 -141 0
142 137 141 0
-143 -11 0
-143 -142 0
143 11 142 0
-144 9 0
-144 11 0
144 -9 -11 0
-145 -9 0
-145 10 0
145 9 -10 0
-146 6 0
-146 145 0
146 -6 -145 0
-147 -144 0
-147 -146 0
147 144 146 0
-148 8 0
-148 -147 0
148 -8 147 0
-149 7 0
-149 148 0
149 -7 -148 0
-150 9 0
-150 -20 0
150 -9 20 0
-151 -11 0
-151 -150 0
151 11 150 0
-152 10 0
-152 -151 0
152 -10 151 0
-153 -149 0
-153 -152 0
153 149 152 0
-154 -143 0
-154 153 0
154 143 -153 0
-155 -2 0
-155 5 0
155 2 -5 0
-156 -88 0
-156 -155 0
156 88 155 0
-157 1 0
-157 -156 0
157 -1 156 0
-158 2 0
-158 5 0
158 -2 -5 0
-159 -1 0
-159 158 0
159 1 -158 0
-160 -157 0
-160 -159 0
160 157 159 0
-161 -7 0
-161 -160 0
161 7 160 0
-162 -8 0
-162 161 0
162 8 -161 0
-163 -84 0
-163 -162 0
163 84 162 0
-164 -6 0
-164 -163 0
164 6 163 0
-165 -5 0
-165 8 0
165 5 -8 0
-166 2 0
-166 -3 0
166 -2 3 0
-167 138 0
-167 166 0
167 -138 -166 0
-168 -165 0
-168 -167 0
168 165 167 0
-169 4 0
-169 -168 0
169 -4 168 0
-170 5 0
-170 8 0
170 -5 -8 0
-171 -4 0
-171 170 0
171 4 -170 0
-172 -169 0
-172 -171 0
172 169 171 0
-173 -9 0
-173 -172 0
173 9 172 0
-174 6 0
-174 9 0
174 -6 -9 0
-175 -5 0
-175 174 0
175 5 -174 0
-176 -173 0
-176 -175 0
176 173 175 0
-177 -164 0
-177 176 0
177 164 -176 0
-178 -10 0
-178 -177 0
178 10 177 0
-179 5 0
-179 -9 0
179 -5 9 0
-180 -4 0
-180 179 0
180 4 -179 0
-181 -5 0
-181 -8 0
181 5 8 0
-182 -180 0
-182 -181 0
182 180 181 0
-183 -3 0
-183 -182 0
183 3 182 0
-184 2 0
-184 183 0
184 -2 -183 0
-185 -2 0
-185 3 0
185 2 -3 0
-186 12 0
-186 185 0
186 -12 -185 0
-187 -10 0
-187 -186 0
187 10 186 0
-188 -184 0
-188 187 0
188 184 -187 0
-189 -7 0
-189 -188 0
189 7 188 0
-190 6 0
-190 189 0
190 -6 -189 0
-191 7 0
-191 10 0
191 -7 -10 0
-192 -6 0
-192 191 0
192 6 -191 0
-193 -190 0
-193 -192 0
193 190 192 0
-194 -178 0
-194 193 0
194 178 -193 0
-195 -11 0
-195 -194 0
195 11 194 0
-196 -3 0
-196 4 0
196 3 -4 0
-197 -69 0
-197 -196 0
197 69 196 0
-198 -10 0
-198 -197 0
198 10 197 0
-199 -9 0
-199 198 0
199 9 -198 0
-200 -11 0
-200 -199 0
200 11 199 0
-201 -8 0
-201 -200 0
201 8 200 0
-202 10 0
-202 11 0
202 -10 -11 0
-203 9 0
-203 202 0
203 -9 -202 0
-204 -201 0
-204 -203 0
204 201 203 0
-205 7 0
-205 -204 0
205 -7 204 0
-206 -7 0
-206 11 0
206 7 -11 0
-207 8 0
-207 206 0
207 -8 -206 0
-208 -205 0
-208 -207 0
208 205 207 0
-209 -195 0
-209 208 0
209 195 -208 0
-210 -5 0
-210 -10 0
210 5 10 0
-211 -3 0
-211 -8 0
211 3 8 0
-212 -210 0
-212 -211 0
212 210 211 0
-213 -2 0
-213 -212 0
213 2 212 0
-214 1 0
-214 60 0
214 -1 -60 0
-215 -1 0
-215 -3 0
215 1 3 0
-216 -214 0
-216 -215 0
216 214 215 0
-217 -8 0
-217 -216 0
217 8 216 0
-218 5 0
-218 217 0
218 -5 -217 0
-219 9 0
-219 -10 0
219 -9 10 0
-220 -218 0
-220 -219 0
220 218 219 0
-221 -213 0
-221 220 0
221 213 -220 0
-222 -7 0
-222 -221 0
222 7 221 0
-223 8 0
-223 -14 0
223 -8 14 0
-224 -10 0
-224 223 0
224 10 -223 0
-225 -9 0
-225 224 0
225 9 -224 0
-226 -8 0
-226 10 0
226 8 -10 0
-227 -225 0
-227 -226 0
227 225 226 0
-228 -222 0
-228 227 0
228 222 -227 0
-229 -6 0
-229 -228 0
229 6 228 0
-230 -9 0
-230 -10 0
230 9 10 0
-231 5 0
-231 230 0
231 -5 -230 0
-232 -5 0
-232 87 0
232 5 -87 0
-233 -231 0
-233 -232 0
233 231 232 0
-234 3 0
-234 -233 0
234 -3 233 0
-235 2 0
-235 234 0
235 -2 -234 0
-236 8 0
-236 -10 0
236 -8 10 0
-237 179 0
-237 236 0
237 -179 -236 0
-238 -235 0
-238 -237 0
238 235 237 0
-239 4 0
-239 -238 0
239 -4 238 0
-240 5 0
-240 219 0
240 -5 -219 0
-241 8 0
-241 10 0
241 -8 -10 0
-242 -240 0
-242 -241 0
242 240 241 0
-243 7 0
-243 -242 0
243 -7 242 0
-244 -239 0
-244 -243 0
244 239 243 0
-245 6 0
-245 -244 0
245 -6 244 0
-246 -5 0
-246 219 0
246 5 -219 0
-247 -226 0
-247 -246 0
247 226 246 0
-248 -7 0
-248 -247 0
248 7 247 0
-249 -245 0
-249 -248 0
249 245 248 0
-250 -229 0
-250 249 0
250 229 -249 0
-251 -11 0
-251 -250 0
251 11 250 0
-252 7 0
-252 -10 0
252 -7 10 0
-253 -5 0
-253 252 0
253 5 -252 0
-254 -4 0
-254 56 0
254 4 -56 0
-255 -253 0
-255 -254 0
255 253 254 0
-256 -3 0
-256 -255 0
256 3 255 0
-257 -116 0
-257 -253 0
257 116 253 0
-258 -4 0
-258 -257 0
258 4 257 0
-259 5 0
-259 252 0
259 -5 -252 0
-260 36 0
-260 259 0
260 -36 -259 0
-261 -11 0
-261 -260 0
261 11 260 0
-262 -258 0
-262 261 0
262 258 -261 0
-263 -256 0
-263 262 0
263 256 -262 0
-264 -8 0
-264 -263 0
264 8 263 0
-265 -206 0
-265 -264 0
265 206 264 0
-266 -9 0
-266 -265 0
266 9 265 0
-267 7 0
-267 11 0
267 -7 -11 0
-268 8 0
-268 267 0
268 -8 -267 0
-269 219 0
-269 268 0
269 -219 -268 0
-270 -266 0
-270 -269 0
270 266 269 0
-271 -251 0
-271 270 0
271 251 -270 0
-272 -209 0
-272 271 0
272 209 -271 0
-273 209 0
-273 -271 0
273 -209 271 0
-274 -272 0
-274 -273 0
274 272 273 0
-275 -154 0
-275 274 0
275 154 -274 0
-276 154 0
-276 -274 0
276 -154 274 0
-277 -275 0
-277 -276 0
277 275 276 0
-278 -94 0
-278 277 0
278 94 -277 0
-279 94 0
-279 -277 0
279 -94 277 0
-280 -278 0
-280 -279 0
280 278 279 0
-281 -81 0
-281 280 0
281 81 -280 0
-282 81 0
-282 -280 0
282 -81 280 0
-283 -281 0
-283 -282 0
283 281 282 0
-284 -45 0
-284 283 0
284 45 -283 0
-285 45 0
-285 -283 0
285 -45 283 0
-286 -284 0
-286 -285 0
286 284 285 0
-287 -19 0
-287 286 0
287 19 -286 0
-288 19 0
-288 -286 0
288 -19 286 0
-289 -287 0
-289 -288 0
289 287 288 0
289 0
